# auto-generated oyster_comm.dat (community sets)

set C1 :=
  33
  36
  44
;
set C2 :=
  1
  3
  4
  5
  6
  16
  17
  26
  28
  29
  30
  35
  37
  41
  48
;
set C3 :=
  7
  9
  15
  24
  27
  31
  32
  38
;
set C4 :=
  10
  19
  20
  39
  40
;
set C5 :=
  11
  12
  18
  21
  42
  47
;
